\ENCODING=ISO-8859-1
\Problem name: IloCplex

Minimize
 obj: y_0 + y_1 + y_2 + y_3 + y_4 + y_5 + y_6 + y_7 + y_8 + y_9 + y_10 + y_11
      + y_12 + y_13 + y_14 + y_15 + y_16 + y_17 + y_18 + y_19
Subject To
 c1:  x_0_1 + x_0_3 + x_0_15 + x_0_19 + x_1_3 + x_1_9 + x_1_14 + x_1_17
      + x_1_18 + x_2_9 + x_3_4 + x_3_6 + x_3_11 + x_3_12 + x_4_19 + x_5_19
      + x_6_17 + x_7_15 + x_8_10 + x_8_19 + x_9_13 + x_9_16 + x_10_15 + x_13_19
      + x_14_16 + x_14_19 + x_15_18  = 19
 c2:  - 2 y_0 + x_0_1 + x_0_3 + x_0_15 + x_0_19 <= 2
 c3:  x_0_1 - 4 y_1 + x_1_3 + x_1_9 + x_1_14 + x_1_17 + x_1_18 <= 2
 c4:  y_2 + x_2_9 <= 2
 c5:  x_0_3 + x_1_3 - 4 y_3 + x_3_4 + x_3_6 + x_3_11 + x_3_12 <= 2
 c6:  x_3_4 + x_4_19 <= 2
 c7:  y_5 + x_5_19 <= 2
 c8:  x_3_6 + x_6_17 <= 2
 c9:  y_7 + x_7_15 <= 2
 c10: x_8_10 + x_8_19 <= 2
 c11: x_1_9 + x_2_9 - 2 y_9 + x_9_13 + x_9_16 <= 2
 c12: x_8_10 + x_10_15 <= 2
 c13: x_3_11 + y_11 <= 2
 c14: x_3_12 + y_12 <= 2
 c15: x_9_13 + x_13_19 <= 2
 c16: x_1_14 - y_14 + x_14_16 + x_14_19 <= 2
 c17: x_0_15 + x_7_15 + x_10_15 - 2 y_15 + x_15_18 <= 2
 c18: x_9_16 + x_14_16 <= 2
 c19: x_1_17 + x_6_17 <= 2
 c20: x_1_18 + x_15_18 <= 2
 c21: x_0_19 + x_4_19 + x_5_19 + x_8_19 + x_13_19 + x_14_19 - 4 y_19 <= 2
Bounds
 0 <= y_0 <= 1
 0 <= x_0_1 <= 1
 0 <= x_0_3 <= 1
 0 <= x_0_15 <= 1
 0 <= x_0_19 <= 1
 0 <= y_1 <= 1
 0 <= x_1_3 <= 1
 0 <= x_1_9 <= 1
 0 <= x_1_14 <= 1
 0 <= x_1_17 <= 1
 0 <= x_1_18 <= 1
 0 <= y_2 <= 1
 0 <= x_2_9 <= 1
 0 <= y_3 <= 1
 0 <= x_3_4 <= 1
 0 <= x_3_6 <= 1
 0 <= x_3_11 <= 1
 0 <= x_3_12 <= 1
 0 <= y_4 <= 1
 0 <= x_4_19 <= 1
 0 <= y_5 <= 1
 0 <= x_5_19 <= 1
 0 <= y_6 <= 1
 0 <= x_6_17 <= 1
 0 <= y_7 <= 1
 0 <= x_7_15 <= 1
 0 <= y_8 <= 1
 0 <= x_8_10 <= 1
 0 <= x_8_19 <= 1
 0 <= y_9 <= 1
 0 <= x_9_13 <= 1
 0 <= x_9_16 <= 1
 0 <= y_10 <= 1
 0 <= x_10_15 <= 1
 0 <= y_11 <= 1
 0 <= y_12 <= 1
 0 <= y_13 <= 1
 0 <= x_13_19 <= 1
 0 <= y_14 <= 1
 0 <= x_14_16 <= 1
 0 <= x_14_19 <= 1
 0 <= y_15 <= 1
 0 <= x_15_18 <= 1
 0 <= y_16 <= 1
 0 <= y_17 <= 1
 0 <= y_18 <= 1
 0 <= y_19 <= 1
Binaries
 y_0  x_0_1  x_0_3  x_0_15  x_0_19  y_1  x_1_3  x_1_9  x_1_14  x_1_17  x_1_18 
 y_2  x_2_9  y_3  x_3_4  x_3_6  x_3_11  x_3_12  y_4  x_4_19  y_5  x_5_19  y_6 
 x_6_17  y_7  x_7_15  y_8  x_8_10  x_8_19  y_9  x_9_13  x_9_16  y_10  x_10_15 
 y_11  y_12  y_13  x_13_19  y_14  x_14_16  x_14_19  y_15  x_15_18  y_16  y_17 
 y_18  y_19 
End
